c uprop, v00.0, 
c reading from data/prog366.c.cnf
c done reading: 0
p cnf 201 991
-106 -127 0
-106 -123 0
106 123 127 0
-100 123 127 0
-100 -123 -127 0
100 123 -127 0
100 -123 127 0
106 -118 0
-116 -118 0
-106 116 118 0
-106 -111 116 0
106 -111 -116 0
106 111 116 0
-106 111 -116 0
-107 118 0
-104 -107 0
104 107 -118 0
-102 104 -118 0
-102 -104 118 0
102 104 118 0
102 -104 -118 0
-101 107 0
-98 -101 0
98 101 -107 0
98 -107 -125 0
-98 107 -125 0
98 107 125 0
-98 -107 125 0
101 -129 0
-120 -129 0
-101 120 129 0
-101 120 -130 0
101 -120 -130 0
101 120 130 0
-101 -120 130 0
129 -131 0
-113 -131 0
113 -129 131 0
113 -129 -132 0
-113 129 -132 0
113 129 132 0
-113 -129 132 0
131 -133 0
-109 -133 0
109 -131 133 0
109 -131 -134 0
-109 131 -134 0
109 131 134 0
-109 -131 134 0
123 -135 0
127 -135 0
-123 -127 135 0
-123 -127 -136 0
123 127 -136 0
-123 127 136 0
123 -127 136 0
-116 -123 137 0
-116 -135 137 0
-123 -135 137 0
116 123 -137 0
116 135 -137 0
123 135 -137 0
116 -137 -138 0
123 -137 -138 0
135 -137 -138 0
-116 137 138 0
-123 137 138 0
-135 137 138 0
-116 -123 -135 138 0
116 123 135 -138 0
-104 -116 139 0
-104 -137 139 0
-116 -137 139 0
104 116 -139 0
104 137 -139 0
116 137 -139 0
104 -139 -140 0
116 -139 -140 0
137 -139 -140 0
-104 139 140 0
-116 139 140 0
-137 139 140 0
-104 -116 -137 140 0
104 116 137 -140 0
-98 -104 141 0
-98 -139 141 0
-104 -139 141 0
98 104 -141 0
98 139 -141 0
104 139 -141 0
-96 98 -141 0
-96 104 -141 0
-96 139 -141 0
96 -98 141 0
96 -104 141 0
96 -139 141 0
96 -98 -104 -139 0
-96 98 104 139 0
95 -98 -120 0
95 -120 -141 0
95 -98 -141 0
-95 98 120 0
-95 120 141 0
-95 98 141 0
-94 -95 120 0
-94 -95 98 0
-94 -95 141 0
94 95 -120 0
94 95 -98 0
94 95 -141 0
94 -98 -120 -141 0
-94 98 120 141 0
93 -113 -120 0
93 -95 -113 0
93 -95 -120 0
-93 113 120 0
-93 95 113 0
-93 95 120 0
-92 -93 113 0
-92 -93 120 0
-92 -93 95 0
92 93 -113 0
92 93 -120 0
92 93 -95 0
92 -95 -113 -120 0
-92 95 113 120 0
91 -109 -113 0
91 -93 -109 0
91 -93 -113 0
-91 109 113 0
-91 93 109 0
-91 93 113 0
-91 109 -126 0
-91 113 -126 0
-91 93 -126 0
91 -109 126 0
91 -113 126 0
91 -93 126 0
-93 -109 -113 126 0
93 109 113 -126 0
109 -122 0
91 -122 0
-91 -109 122 0
-91 -109 -115 0
91 109 -115 0
91 -109 115 0
-91 109 115 0
-103 138 0
-103 127 0
103 -127 -138 0
-97 -127 -138 0
-97 127 138 0
97 127 -138 0
97 -127 138 0
119 -123 -140 0
-103 119 -140 0
-103 119 -123 0
-119 123 140 0
103 -119 140 0
103 -119 123 0
-112 -119 140 0
-112 -119 123 0
103 -112 -119 0
112 119 -140 0
112 119 -123 0
-103 112 119 0
-103 112 -123 -140 0
103 -112 123 140 0
-96 108 -116 0
-96 108 -119 0
108 -116 -119 0
96 -108 116 0
96 -108 119 0
-108 116 119 0
-90 96 -108 0
-90 -108 116 0
-90 -108 119 0
90 -96 108 0
90 108 -116 0
90 108 -119 0
90 -96 -116 -119 0
-90 96 116 119 0
89 -94 -104 0
89 -94 -108 0
89 -104 -108 0
-89 94 104 0
-89 94 108 0
-89 104 108 0
-88 -89 94 0
-88 -89 104 0
-88 -89 108 0
88 89 -94 0
88 89 -104 0
88 89 -108 0
88 -94 -104 -108 0
-88 94 104 108 0
87 -92 -98 0
87 -89 -92 0
87 -89 -98 0
-87 92 98 0
-87 89 92 0
-87 89 98 0
-86 -87 92 0
-86 -87 98 0
-86 -87 89 0
86 87 -92 0
86 87 -98 0
86 87 -89 0
86 -89 -92 -98 0
-86 89 92 98 0
85 -120 -126 0
85 -87 -126 0
85 -87 -120 0
-85 120 126 0
-85 87 126 0
-85 87 120 0
-84 -85 126 0
-84 -85 120 0
-84 -85 87 0
84 85 -126 0
84 85 -120 0
84 85 -87 0
84 -87 -120 -126 0
-84 87 120 126 0
83 -113 -115 0
83 -85 -115 0
83 -85 -113 0
-83 113 115 0
-83 85 115 0
-83 85 113 0
-82 -83 115 0
-82 -83 113 0
-82 -83 85 0
82 83 -115 0
82 83 -113 0
82 83 -85 0
82 -85 -113 -115 0
-82 85 113 115 0
81 -109 -122 0
81 -83 -122 0
81 -83 -109 0
-81 109 122 0
-81 83 122 0
-81 83 109 0
-80 -81 122 0
-80 -81 109 0
-80 -81 83 0
80 81 -122 0
80 81 -109 0
80 81 -83 0
80 -83 -109 -122 0
-80 83 109 122 0
-79 112 0
-79 127 0
79 -112 -127 0
-78 -112 -127 0
-78 112 127 0
78 -112 127 0
78 112 -127 0
77 -90 -123 0
77 -79 -90 0
77 -79 -123 0
-77 90 123 0
-77 79 90 0
-77 79 123 0
-76 -77 90 0
-76 -77 123 0
-76 -77 79 0
76 77 -90 0
76 77 -123 0
76 77 -79 0
76 -79 -90 -123 0
-76 79 90 123 0
75 -88 -116 0
75 -77 -88 0
75 -77 -116 0
-75 88 116 0
-75 77 88 0
-75 77 116 0
-75 88 -142 0
-75 116 -142 0
-75 77 -142 0
75 -88 142 0
75 -116 142 0
75 -77 142 0
-77 -88 -116 142 0
77 88 116 -142 0
-86 -104 143 0
-75 -86 143 0
-75 -104 143 0
86 104 -143 0
75 86 -143 0
75 104 -143 0
86 -143 -144 0
104 -143 -144 0
75 -143 -144 0
-86 143 144 0
-104 143 144 0
-75 143 144 0
-75 -86 -104 144 0
75 86 104 -144 0
-84 -98 145 0
-84 -143 145 0
-98 -143 145 0
84 98 -145 0
84 143 -145 0
98 143 -145 0
84 -145 -146 0
98 -145 -146 0
143 -145 -146 0
-84 145 146 0
-98 145 146 0
-143 145 146 0
-84 -98 -143 146 0
84 98 143 -146 0
-82 -120 147 0
-82 -145 147 0
-120 -145 147 0
82 120 -147 0
82 145 -147 0
120 145 -147 0
82 -147 -148 0
120 -147 -148 0
145 -147 -148 0
-82 147 148 0
-120 147 148 0
-145 147 148 0
-82 -120 -145 148 0
82 120 145 -148 0
-80 -113 149 0
-80 -147 149 0
-113 -147 149 0
80 113 -149 0
80 147 -149 0
113 147 -149 0
80 -149 -150 0
113 -149 -150 0
147 -149 -150 0
-80 149 150 0
-113 149 150 0
-147 149 150 0
-80 -113 -147 150 0
80 113 147 -150 0
-81 -109 151 0
-81 -149 151 0
-109 -149 151 0
81 109 -151 0
81 149 -151 0
109 149 -151 0
81 -151 -152 0
109 -151 -152 0
149 -151 -152 0
-81 151 152 0
-109 151 152 0
-149 151 152 0
-81 -109 -149 152 0
81 109 149 -152 0
142 -153 0
127 -153 0
-127 -142 153 0
-127 -142 -154 0
127 142 -154 0
127 -142 154 0
-127 142 154 0
-123 -144 155 0
-144 -153 155 0
-123 -153 155 0
123 144 -155 0
144 153 -155 0
123 153 -155 0
144 -155 -156 0
123 -155 -156 0
153 -155 -156 0
-144 155 156 0
-123 155 156 0
-153 155 156 0
-123 -144 -153 156 0
123 144 153 -156 0
-116 -146 157 0
-146 -155 157 0
-116 -155 157 0
116 146 -157 0
146 155 -157 0
116 155 -157 0
146 -157 -158 0
116 -157 -158 0
155 -157 -158 0
-146 157 158 0
-116 157 158 0
-155 157 158 0
-116 -146 -155 158 0
116 146 155 -158 0
-104 -148 159 0
-148 -157 159 0
-104 -157 159 0
104 148 -159 0
148 157 -159 0
104 157 -159 0
148 -159 -160 0
104 -159 -160 0
157 -159 -160 0
-148 159 160 0
-104 159 160 0
-157 159 160 0
-104 -148 -157 160 0
104 148 157 -160 0
-98 -150 161 0
-150 -159 161 0
-98 -159 161 0
98 150 -161 0
150 159 -161 0
98 159 -161 0
150 -161 -162 0
98 -161 -162 0
159 -161 -162 0
-150 161 162 0
-98 161 162 0
-159 161 162 0
-98 -150 -159 162 0
98 150 159 -162 0
-120 -152 163 0
-152 -161 163 0
-120 -161 163 0
120 152 -163 0
152 161 -163 0
120 161 -163 0
152 -163 -164 0
120 -163 -164 0
161 -163 -164 0
-152 163 164 0
-120 163 164 0
-161 163 164 0
-120 -152 -161 164 0
120 152 161 -164 0
-113 -151 165 0
-151 -163 165 0
-113 -163 165 0
113 151 -165 0
151 163 -165 0
113 163 -165 0
151 -165 -166 0
113 -165 -166 0
163 -165 -166 0
-151 165 166 0
-113 165 166 0
-163 165 166 0
-113 -151 -163 166 0
113 151 163 -166 0
109 -167 0
165 -167 0
-109 -165 167 0
-109 -165 -168 0
109 165 -168 0
-109 165 168 0
109 -165 168 0
-127 -169 0
-136 -169 0
127 136 169 0
127 136 -170 0
-127 -136 -170 0
-127 136 170 0
127 -136 170 0
169 -171 0
-97 -171 0
97 -169 171 0
97 -169 -172 0
-97 169 -172 0
97 169 172 0
-97 -169 172 0
171 -173 0
-78 -173 0
78 -171 173 0
78 -171 -174 0
-78 171 -174 0
78 171 174 0
-78 -171 174 0
173 -175 0
-76 -175 0
76 -173 175 0
76 -173 -176 0
-76 173 -176 0
76 173 176 0
-76 -173 176 0
175 -177 0
-154 -177 0
154 -175 177 0
154 -175 -178 0
-154 175 -178 0
154 175 178 0
-154 -175 178 0
177 -179 0
-156 -179 0
156 -177 179 0
156 -177 -180 0
-156 177 -180 0
156 177 180 0
-156 -177 180 0
179 -181 0
-158 -181 0
158 -179 181 0
158 -179 -182 0
-158 179 -182 0
158 179 182 0
-158 -179 182 0
181 -183 0
-160 -183 0
160 -181 183 0
160 -181 -184 0
-160 181 -184 0
160 181 184 0
-160 -181 184 0
183 -185 0
-162 -185 0
162 -183 185 0
-128 162 -183 0
-128 -162 183 0
128 162 183 0
128 -162 -183 0
-124 185 0
-124 -164 0
124 164 -185 0
-117 164 -185 0
-117 -164 185 0
117 164 185 0
117 -164 -185 0
-105 124 0
-105 -166 0
105 -124 166 0
-99 -124 166 0
-99 124 -166 0
99 124 166 0
99 -124 -166 0
105 -121 0
-121 -168 0
-105 121 168 0
-105 -114 168 0
105 -114 -168 0
105 114 168 0
-105 114 -168 0
-110 121 0
-110 -167 0
110 -121 167 0
-121 167 -186 0
121 -167 -186 0
121 167 186 0
-121 -167 186 0
-187 -188 0
-188 -189 0
187 188 189 0
187 189 -190 0
-187 -189 -190 0
-187 189 190 0
187 -189 190 0
188 -192 0
-191 -192 0
-188 191 192 0
-188 191 -194 0
188 -191 -194 0
188 191 194 0
-188 -191 194 0
192 -196 0
-193 -196 0
-192 193 196 0
-192 193 -198 0
192 -193 -198 0
192 193 198 0
-192 -193 198 0
196 -199 0
-195 -199 0
195 -196 199 0
195 -196 -200 0
-195 196 -200 0
195 196 200 0
-195 -196 200 0
199 -201 0
-197 -201 0
197 -199 201 0
-74 197 -199 0
-74 -197 199 0
74 197 199 0
74 -197 -199 0
-73 201 0
-72 -73 0
72 73 -201 0
-71 72 -201 0
-71 -72 201 0
71 72 201 0
71 -72 -201 0
-70 73 0
-69 -70 0
69 70 -73 0
-68 69 -73 0
-68 -69 73 0
68 69 73 0
68 -69 -73 0
-67 189 0
-67 187 0
67 -187 -189 0
-66 -187 -189 0
-66 187 189 0
66 187 -189 0
66 -187 189 0
65 -189 -191 0
65 -67 -191 0
65 -67 -189 0
-65 189 191 0
-65 67 191 0
-65 67 189 0
-64 -65 191 0
-64 -65 189 0
-64 -65 67 0
64 65 -191 0
64 65 -189 0
64 65 -67 0
64 -67 -189 -191 0
-64 67 189 191 0
63 -191 -193 0
63 -65 -193 0
63 -65 -191 0
-63 191 193 0
-63 65 193 0
-63 65 191 0
-62 -63 193 0
-62 -63 191 0
-62 -63 65 0
62 63 -193 0
62 63 -191 0
62 63 -65 0
62 -65 -191 -193 0
-62 65 191 193 0
61 -193 -195 0
61 -63 -195 0
61 -63 -193 0
-61 193 195 0
-61 63 195 0
-61 63 193 0
-60 -61 195 0
-60 -61 193 0
-60 -61 63 0
60 61 -195 0
60 61 -193 0
60 61 -63 0
60 -63 -193 -195 0
-60 63 193 195 0
59 -195 -197 0
59 -61 -197 0
59 -61 -195 0
-59 195 197 0
-59 61 197 0
-59 61 195 0
-58 -59 197 0
-58 -59 195 0
-58 -59 61 0
58 59 -197 0
58 59 -195 0
58 59 -61 0
58 -61 -195 -197 0
-58 61 195 197 0
57 -72 -197 0
57 -59 -72 0
57 -59 -197 0
-57 72 197 0
-57 59 72 0
-57 59 197 0
-56 -57 72 0
-56 -57 197 0
-56 -57 59 0
56 57 -72 0
56 57 -197 0
56 57 -59 0
56 -59 -72 -197 0
-56 59 72 197 0
55 -69 -72 0
55 -57 -69 0
55 -57 -72 0
-55 69 72 0
-55 57 69 0
-55 57 72 0
-54 -55 69 0
-54 -55 72 0
-54 -55 57 0
54 55 -69 0
54 55 -72 0
54 55 -57 0
54 -57 -69 -72 0
-54 57 69 72 0
-53 69 0
-53 55 0
53 -55 -69 0
-52 -55 -69 0
-52 55 69 0
52 55 -69 0
52 -55 69 0
-51 62 0
-51 187 0
51 -62 -187 0
-50 -62 -187 0
-50 62 187 0
50 -62 187 0
50 62 -187 0
49 -60 -189 0
49 -51 -60 0
49 -51 -189 0
-49 60 189 0
-49 51 60 0
-49 51 189 0
-48 -49 60 0
-48 -49 189 0
-48 -49 51 0
48 49 -60 0
48 49 -189 0
48 49 -51 0
48 -51 -60 -189 0
-48 51 60 189 0
47 -58 -191 0
47 -49 -58 0
47 -49 -191 0
-47 58 191 0
-47 49 58 0
-47 49 191 0
-46 -47 58 0
-46 -47 191 0
-46 -47 49 0
46 47 -58 0
46 47 -191 0
46 47 -49 0
46 -49 -58 -191 0
-46 49 58 191 0
45 -56 -193 0
45 -47 -56 0
45 -47 -193 0
-45 56 193 0
-45 47 56 0
-45 47 193 0
-44 -45 56 0
-44 -45 193 0
-44 -45 47 0
44 45 -56 0
44 45 -193 0
44 45 -47 0
44 -47 -56 -193 0
-44 47 56 193 0
43 -54 -195 0
43 -45 -54 0
43 -45 -195 0
-43 54 195 0
-43 45 54 0
-43 45 195 0
-42 -43 54 0
-42 -43 195 0
-42 -43 45 0
42 43 -54 0
42 43 -195 0
42 43 -45 0
42 -45 -54 -195 0
-42 45 54 195 0
41 -52 -197 0
41 -43 -52 0
41 -43 -197 0
-41 52 197 0
-41 43 52 0
-41 43 197 0
-40 -41 52 0
-40 -41 197 0
-40 -41 43 0
40 41 -52 0
40 41 -197 0
40 41 -43 0
40 -43 -52 -197 0
-40 43 52 197 0
39 -53 -72 0
39 -41 -53 0
39 -41 -72 0
-39 53 72 0
-39 41 53 0
-39 41 72 0
-38 -39 53 0
-38 -39 72 0
-38 -39 41 0
38 39 -53 0
38 39 -72 0
38 39 -41 0
38 -41 -53 -72 0
-38 41 53 72 0
-37 69 0
-37 39 0
37 -39 -69 0
-36 -39 -69 0
-36 39 69 0
36 39 -69 0
36 -39 69 0
-35 -187 0
-35 -66 0
35 66 187 0
-34 66 187 0
-34 -66 -187 0
34 66 -187 0
34 -66 187 0
-33 35 0
-33 -64 0
33 -35 64 0
-32 -35 64 0
-32 35 -64 0
32 35 64 0
32 -35 -64 0
-31 33 0
-31 -50 0
31 -33 50 0
-30 -33 50 0
-30 33 -50 0
30 33 50 0
30 -33 -50 0
-29 31 0
-29 -48 0
29 -31 48 0
-28 -31 48 0
-28 31 -48 0
28 31 48 0
28 -31 -48 0
-27 29 0
-27 -46 0
27 -29 46 0
-26 -29 46 0
-26 29 -46 0
26 29 46 0
26 -29 -46 0
-25 27 0
-25 -44 0
25 -27 44 0
-24 -27 44 0
-24 27 -44 0
24 27 44 0
24 -27 -44 0
-23 25 0
-23 -42 0
23 -25 42 0
-22 -25 42 0
-22 25 -42 0
22 25 42 0
22 -25 -42 0
-21 23 0
-21 -40 0
21 -23 40 0
-20 -23 40 0
-20 23 -40 0
20 23 40 0
20 -23 -40 0
-19 21 0
-19 -38 0
19 -21 38 0
-18 -21 38 0
-18 21 -38 0
18 21 38 0
18 -21 -38 0
-17 19 0
-17 -36 0
17 -19 36 0
-16 -19 36 0
-16 19 -36 0
16 19 36 0
16 -19 -36 0
-15 17 0
-15 -37 0
15 -17 37 0
-14 -17 37 0
-14 17 -37 0
14 17 37 0
14 -17 -37 0
-13 127 0
-13 187 0
13 -127 -187 0
-127 -187 0
127 187 0
12 -66 -136 0
12 -13 -136 0
12 -13 -66 0
-12 66 136 0
-12 13 136 0
-12 13 66 0
-12 136 0
-12 66 0
-12 13 0
13 66 136 0
11 -64 -97 0
11 -12 -97 0
11 -12 -64 0
-11 64 97 0
-11 12 97 0
-11 12 64 0
-11 97 0
-11 64 0
-11 12 0
12 64 97 0
10 -50 -78 0
10 -11 -78 0
10 -11 -50 0
-10 50 78 0
-10 11 78 0
-10 11 50 0
-10 78 0
-10 50 0
-10 11 0
11 50 78 0
9 -48 -76 0
9 -10 -76 0
9 -10 -48 0
-9 48 76 0
-9 10 76 0
-9 10 48 0
-9 76 0
-9 48 0
-9 10 0
10 48 76 0
8 -46 -154 0
8 -9 -154 0
8 -9 -46 0
-8 46 154 0
-8 9 154 0
-8 9 46 0
-8 154 0
-8 46 0
-8 9 0
9 46 154 0
7 -44 -156 0
7 -8 -156 0
7 -8 -44 0
-7 44 156 0
-7 8 156 0
-7 8 44 0
7 -156 0
7 -44 0
7 -8 0
-8 -44 -156 0
6 -42 -158 0
6 -7 -158 0
6 -7 -42 0
-6 42 158 0
-6 7 158 0
-6 7 42 0
-6 158 0
-6 42 0
-6 7 0
7 42 158 0
5 -40 -160 0
5 -6 -160 0
5 -6 -40 0
-5 40 160 0
-5 6 160 0
-5 6 40 0
5 -160 0
5 -40 0
5 -6 0
-6 -40 -160 0
4 -38 -162 0
4 -5 -162 0
4 -5 -38 0
-4 38 162 0
-4 5 162 0
-4 5 38 0
4 -162 0
4 -38 0
4 -5 0
-5 -38 -162 0
3 -36 -164 0
3 -4 -164 0
3 -4 -36 0
-3 36 164 0
-3 4 164 0
-3 4 36 0
3 -164 0
3 -36 0
3 -4 0
-4 -36 -164 0
2 -37 -166 0
2 -3 -166 0
2 -3 -37 0
-2 37 166 0
-2 3 166 0
-2 3 37 0
2 -166 0
2 -37 0
2 -3 0
-3 -37 -166 0
-1 168 0
-1 2 0
1 -2 -168 0
2 -168 0
-2 168 0
-1 -167 0
1 -167 0
-1 167 0
